




































































































23 48 58 30 14 83 94 70 21 
35 77 28 114 25 16 54 47 19 113 
37 5 43 72 98 15 79 42 
110 89 26 103 61 97 86 64 
71 39 80 1 50 91 55 2 6 
38 18 27 45 57 75 34 95 
53 24 112 90 40 17 104 31 108 
109 44 76 73 85 63 41 51 88 
52 32 22 92 49 105 7 62 
82 4 99 67 8 101 106 
96 11 102 10 78 84 20 107 65 
12 74 0 36 9 29 59 33 66 
56 69 13 46 100 68 3 60 
81 93 111 87 
